CMD:
./solvers/bin/cadical --plain --no-reduce -t 1600 ./data/cnfs//bobsmdct/bobsmdct.79.cnf

c --- [ banner ] -------------------------------------------------------------
c 
c CaDiCaL SAT Solver
c Copyright (c) 2016-2024
c A. Biere, M. Fleury, N. Froleyks, K. Fazekas, F. Pollitt, T. Faller
c JKU Linz, University of Freiburg, TU Wien
c 
c Version 2.1.3 5296d3d2a9bf48c154ab2acb5e44625776d821bf
c g++ (Gentoo 12.3.1_p20230526 p2) 12.3.1 20230526 -Wall -Wextra -O3 -DNDEBUG
c Sat Aug 9 07:26:21 PDT 2025 Linux cedar2.int.cedar.computecanada.ca 5.14.0-362.24.2.el9_3.x86_64 x86_64
c 
c --- [ limit ] --------------------------------------------------------------
c 
c setting time limit to 1600 seconds real time (due to '-t 1600')
c 
c --- [ parsing input ] ------------------------------------------------------
c 
c reading DIMACS file from './data/cnfs//bobsmdct/bobsmdct.79.cnf'
c opening file to read './data/cnfs//bobsmdct/bobsmdct.79.cnf'
c found 'p cnf 86103 256502' header
c parsed 256502 clauses in 0.04 seconds process time
c 
c --- [ options ] ------------------------------------------------------------
c 
c   --compact=false                (different from default 'true')
c   --decompose=false              (different from default 'true')
c   --deduplicate=false            (different from default 'true')
c   --elim=false                   (different from default 'true')
c   --probe=false                  (different from default 'true')
c   --reduce=false                 (different from default 'true')
c   --subsume=false                (different from default 'true')
c   --ternary=false                (different from default 'true')
c   --transred=false               (different from default 'true')
c   --vivify=false                 (different from default 'true')
c 
c --- [ solving ] ------------------------------------------------------------
c 
c time measured in process time since initialization
c 
c  seconds  reductions  redundant  irredundant
c         MB    restarts       trail       variables
c          level   conflicts       glue         remaining
c 
c *  0.04 40  0 0   0    0    0  0% 0 233746 68114 79%
c {  0.05 42  0 0   0    0    0  0% 0 233746 68114 79%
c i  0.05 42  1 0   0    1    0 24% 0 233746 67648 79%
c i  0.06 42 46 0  30  210  196 25% 3 233746 67639 79%
c }  0.08 42 62 0  79 1000  946 28% 3 233746 67639 79%
c [  0.08 42  0 0  79 1000  946  0% 0 233746 67639 79%
c i  0.08 42 62 0  79 1001  946 35% 0 233746 67621 79%
c O  0.08 42 36 0  79 1002  947 29% 1 233746 67621 79%
c i  0.08 42 27 0  79 1003  947 27% 0 233746 67610 79%
c i  0.08 42 22 0  79 1004  947 26% 0 233746 67592 79%
c i  0.08 42 20 0  79 1005  947 26% 0 233746 67574 78%
c i  0.08 42 18 0  79 1006  947 26% 0 233746 67556 78%
c i  0.08 42 17 0  79 1007  947 26% 0 233746 67538 78%
c i  0.08 42 16 0  79 1008  947 27% 0 233746 67520 78%
c i  0.08 42 15 0  79 1009  947 27% 0 233746 67505 78%
c i  0.08 42 14 0  79 1010  947 27% 0 233746 67492 78%
c i  0.13 43 319 0  80 2206 2024 84% 8 233746 67475 78%
c ]  0.14 43 194 0  80 3001 2596 60% 8 233746 67475 78%
c {  0.14 43 62 0  80 3001 2596 28% 3 233746 67475 78%
c F  0.14 43 61 0  80 3003 2598 28% 3 233746 67475 78%
c 
c  seconds  reductions  redundant  irredundant
c         MB    restarts       trail       variables
c          level   conflicts       glue         remaining
c 
c i  0.16 43 49 0 215 3653 3150 27% 3 233746 67458 78%
c i  0.16 43 49 0 215 3656 3152 27% 3 233746 67446 78%
c i  0.16 43 49 0 215 3658 3153 27% 3 233746 67407 78%
c i  0.16 43 49 0 215 3659 3153 27% 3 233746 67403 78%
c i  0.16 43 49 0 215 3709 3195 27% 3 233746 67355 78%
c i  0.16 43 49 0 215 3716 3200 27% 3 233746 67309 78%
c i  0.18 43 51 0 264 4169 3616 28% 3 233746 67289 78%
c i  0.18 43 51 0 264 4180 3626 28% 3 233746 67286 78%
c i  0.18 43 51 0 264 4186 3630 28% 3 233746 67242 78%
c i  0.18 43 51 0 264 4188 3630 28% 3 233746 67234 78%
c i  0.18 43 50 0 272 4283 3716 28% 3 233746 67215 78%
c i  0.19 43 50 0 272 4308 3736 28% 3 233746 67206 78%
c i  0.20 43 49 0 332 4772 4164 28% 3 233746 67017 78%
c i  0.21 43 47 0 356 4995 4355 28% 3 233746 67003 78%
c i  0.21 43 46 0 369 5170 4517 28% 3 233746 66986 78%
c i  0.22 43 44 0 384 5502 4830 28% 3 233746 66972 78%
c i  0.24 43 42 0 446 5897 5179 28% 4 233746 66946 78%
c i  0.24 43 42 0 447 5928 5206 28% 4 233746 66926 78%
c #  0.24 43 41 0 450 6004 5278 28% 4 233746 66926 78%
c i  0.25 43 40 0 499 6308 5565 28% 4 233746 66905 78%
c 
c  seconds  reductions  redundant  irredundant
c         MB    restarts       trail       variables
c          level   conflicts       glue         remaining
c 
c i  0.25 43 40 0 499 6326 5581 28% 4 233746 66899 78%
c i  0.25 43 40 0 502 6387 5637 28% 4 233746 66893 78%
c i  0.25 43 40 0 502 6388 5637 28% 4 233746 66883 78%
c i  0.26 43 40 0 508 6459 5702 28% 4 233746 66869 78%
c i  0.26 43 39 0 525 6529 5765 28% 4 233746 66850 78%
c i  0.26 43 39 0 533 6553 5786 28% 4 233746 66845 78%
c i  0.26 43 39 0 533 6560 5792 28% 4 233746 66842 78%
c i  0.26 43 39 0 539 6636 5858 28% 4 233746 66835 78%
c i  0.27 43 39 0 541 6655 5874 28% 4 233746 66834 78%
c i  0.27 43 38 0 575 6829 6039 28% 4 233746 66816 78%
c i  0.27 43 38 0 575 6845 6053 28% 4 233746 66784 78%
c i  0.27 43 38 0 575 6846 6053 28% 4 233746 66771 78%
c i  0.28 43 38 0 591 6942 6133 27% 4 233746 66758 78%
c i  0.28 43 38 0 599 6972 6157 27% 4 233746 66751 78%
c i  0.28 43 38 0 600 6979 6162 27% 4 233746 66744 78%
c }  0.28 43 38 0 607 7002 6185 27% 4 233746 66744 78%
c [  0.28 43 194 0 607 7002 6185 60% 8 233746 66744 78%
c i  0.29 43 182 0 608 7199 6368 57% 8 233746 66730 78%
c i  0.31 44 152 0 608 7686 6802 52% 7 233746 66716 77%
c i  0.32 44 138 0 608 7998 7086 49% 7 233746 66715 77%
c 
c  seconds   reductions  redundant  irredundant
c         MB     restarts       trail       variables
c           level   conflicts       glue         remaining
c 
c i  0.32 44 132 0 608 8138 7193 48% 7 233746 66670 77%
c i  0.33 44 126 0 608 8294 7332 47% 7 233746 66667 77%
c i  0.33 44 126 0 608 8298 7333 47% 7 233746 66651 77%
c i  0.33 44 124 0 608 8355 7379 46% 7 233746 66633 77%
c i  0.34 44 120 0 608 8475 7472 46% 7 233746 66632 77%
c ]  0.37 44 102 0 608 9172 8062 42% 7 233746 64835 75%
c 0  0.37 44 102 0 608 9172 8062 42% 7 233746 64835 75%
c 
c --- [ result ] -------------------------------------------------------------
c 
s UNSATISFIABLE
c 
c --- [ run-time profiling ] -------------------------------------------------
c 
c process time taken by individual solving procedures
c (percentage relative to process time for solving)
c 
c         0.33   99.97% search
c         0.17   50.25% unstable
c         0.15   46.39% stable
c         0.04   10.99% parse
c         0.01    3.32% lucky
c         0.00    0.00% simplify
c   =================================
c         0.33   90.00% solve
c 
c last line shows process time for solving
c (percentage relative to total process time)
c 
c --- [ statistics ] ---------------------------------------------------------
c 
c chronological:              3475        37.89 %  of conflicts
c conflicts:                  9172     27840.34    per second
c decisions:                 31858     96700.56    per second
c fixed:                     21267        24.70 %  of all variables
c learned:                    8790        95.84 %  per conflict
c learned_lits:             155485       100.00 %  learned literals
c minimized:                     0         0.00 %  learned literals
c shrunken:                  26871        17.28 %  learned literals
c minishrunken:              20224        13.01 %  learned literals
c otfs:                        123         1.34 %  of conflict
c propagations:            5629369        17.09 M  per second
c rephased:                      3      3057.33    interval
c restarts:                    608        15.09    interval
c stabilizing:                   2        45.48 %  of conflicts
c subsumed:                    671         0.28 %  of all clauses
c strengthened:                122         0.05 %  of all clauses
c 
c seconds are measured in process time for solving
c 
c --- [ resources ] ----------------------------------------------------------
c 
c total process time since initialization:         0.37    seconds
c total real time since initialization:            0.37    seconds
c maximum resident set size of process:           41.88    MB
c 
c --- [ shutting down ] ------------------------------------------------------
c 
c exit 20
